c preprocessed version of link-wpp, 308 vertices, 1158 edges
p td 308 1158
1 0
2 0
0 7
10 0
3 0
13 0
1 2
1 4
1 14
1 12
52 1
53 1
263 1
15 1
3 1
285 1
286 1
3 2
17 2
283 2
3 4
3 12
3 15
3 14
3 280
3 281
282 3
285 3
286 3
4 5
10 4
13 4
285 4
6 5
8 5
10 5
13 5
284 5
7 6
272 6
6 9
6 11
6 8
16 6
275 6
276 6
284 6
287 6
7 8
10 7
13 7
8 9
8 11
301 8
16 8
302 8
303 8
284 8
287 8
10 9
14 9
16 9
13 9
10 11
10 274
10 12
10 14
10 275
276 10
13 10
11 12
13 11
287 11
13 12
286 12
13 14
13 30
13 302
303 13
15 14
15 16
17 15
283 15
17 16
283 16
17 18
17 263
17 284
17 285
17 286
17 283
287 17
262 17
18 19
18 263
18 298
299 18
262 18
19 20
19 68
19 69
298 19
19 299
21 20
20 68
248 20
270 20
20 69
21 22
21 81
64 21
21 247
21 270
21 271
21 248
257 21
65 21
22 23
22 104
22 159
22 236
22 105
22 244
22 237
248 22
247 22
24 23
23 104
23 159
23 236
75 23
77 23
23 105
23 244
23 237
24 25
24 75
24 69
24 76
24 77
24 70
290 24
295 24
291 24
25 26
25 83
25 80
81 25
25 89
25 82
25 288
75 25
76 25
26 27
26 300
26 301
81 26
82 26
28 27
27 300
27 301
85 27
87 27
28 29
28 35
28 36
85 28
87 28
30 29
35 29
31 29
36 29
300 29
30 31
30 300
30 302
303 30
32 31
79 31
300 31
82 31
32 33
49 32
80 32
32 170
71 32
79 32
76 32
82 32
288 32
33 34
79 33
279 33
288 33
280 33
35 34
36 34
279 34
86 34
280 34
35 36
35 37
86 35
277 35
36 37
86 36
277 36
37 38
170 37
37 169
179 37
37 172
181 37
171 37
277 37
38 39
170 38
38 143
38 111
38 246
38 245
38 118
38 117
38 121
38 125
38 129
38 147
38 133
38 156
38 137
38 141
122 38
134 38
157 38
144 38
171 38
112 38
126 38
130 38
148 38
138 38
40 39
39 143
144 39
39 111
39 246
39 245
39 118
39 117
39 121
39 125
39 129
39 147
39 133
39 156
39 137
39 141
94 39
122 39
134 39
157 39
93 39
112 39
126 39
130 39
148 39
138 39
40 41
40 95
40 94
93 40
234 40
235 40
41 42
234 41
94 41
169 41
41 168
41 232
41 185
41 220
41 223
41 228
41 188
41 192
41 196
41 200
41 204
41 208
41 212
184 41
229 41
217 41
221 41
224 41
187 41
193 41
197 41
201 41
205 41
209 41
213 41
42 43
169 42
42 167
216 42
217 42
44 43
168 43
185 43
219 43
43 226
167 43
238 43
220 43
222 43
223 43
228 43
189 43
188 43
191 43
192 43
195 43
196 43
199 43
200 43
203 43
204 43
207 43
208 43
211 43
212 43
216 43
239 43
166 43
227 43
45 44
44 238
240 44
241 44
239 44
45 46
45 161
240 45
242 45
45 241
162 45
46 47
274 46
273 46
242 46
241 46
48 47
274 47
106 47
105 47
273 47
49 48
48 107
237 48
48 238
106 48
71 48
105 48
244 48
77 48
49 50
49 71
292 49
296 49
76 49
77 49
70 49
291 49
50 51
67 50
71 50
68 50
70 50
51 52
67 51
68 51
298 51
299 51
52 53
263 52
298 52
299 52
54 53
263 53
264 53
265 53
55 54
259 54
260 54
264 54
265 54
56 55
259 55
293 55
260 55
297 55
57 56
293 56
72 56
297 56
73 56
58 57
57 71
57 72
73 57
59 58
58 75
58 71
58 72
74 58
59 60
59 75
59 73
74 59
60 61
73 60
74 60
60 297
289 60
62 61
61 260
289 61
297 61
261 61
63 62
258 62
62 260
266 62
261 62
64 63
63 258
63 266
257 63
256 63
64 65
64 257
64 256
65 66
65 254
65 255
257 65
66 67
66 79
66 106
254 66
255 66
66 78
247 66
270 66
271 66
68 67
78 67
270 67
69 68
70 69
75 69
70 71
75 70
72 71
76 71
77 71
73 72
74 73
74 75
75 76
75 77
78 79
78 106
249 78
268 78
269 78
247 78
270 78
271 78
80 79
79 170
82 79
288 79
271 79
81 80
80 89
80 170
81 82
81 83
81 89
81 288
248 81
271 81
83 84
83 278
83 279
288 83
85 84
84 278
87 84
86 84
84 279
85 86
85 277
85 88
85 87
87 86
87 88
87 277
89 88
88 90
88 179
88 171
88 181
277 88
182 88
89 90
89 179
89 171
89 181
182 89
90 91
90 178
179 90
180 90
177 90
92 91
91 178
233 91
235 91
180 91
177 91
92 93
92 234
92 233
92 235
186 92
93 94
233 93
94 95
234 94
235 94
95 96
172 95
95 173
178 95
95 180
235 95
96 97
172 96
96 174
180 96
96 175
98 97
151 97
97 174
173 97
97 175
152 97
176 97
99 98
98 151
153 98
154 98
98 152
100 99
99 153
177 99
99 175
99 154
99 176
100 101
100 160
100 159
177 100
100 175
100 176
102 101
101 160
101 159
101 243
163 101
162 101
115 101
102 103
102 164
102 240
102 242
102 163
102 162
103 104
163 103
103 272
242 103
103 273
105 104
104 272
104 273
105 106
106 107
244 106
237 106
106 238
247 106
107 108
161 107
107 174
160 107
244 107
243 107
108 109
111 108
161 108
143 108
243 108
108 116
110 108
245 108
117 108
114 108
121 108
125 108
124 108
129 108
128 108
147 108
146 108
133 108
156 108
137 108
136 108
141 108
140 108
120 108
142 108
132 108
155 108
110 109
245 109
115 109
119 109
111 110
114 110
151 110
143 110
110 116
150 110
152 110
245 110
117 110
121 110
125 110
124 110
129 110
128 110
147 110
146 110
133 110
156 110
137 110
136 110
141 110
140 110
120 110
142 110
132 110
155 110
112 111
114 111
112 113
113 114
115 113
119 113
115 114
119 114
115 116
115 120
115 123
115 124
115 127
115 128
115 131
115 132
115 135
115 136
115 140
115 142
115 145
115 159
115 243
115 146
115 149
115 155
115 119
158 115
139 115
117 116
119 116
118 117
119 120
119 123
119 124
119 127
119 128
119 131
119 132
119 135
119 136
119 140
119 142
119 145
119 146
119 149
119 150
119 153
119 154
119 155
158 119
139 119
120 121
120 123
122 121
123 122
124 125
127 124
126 125
126 127
128 129
131 128
130 129
130 131
132 133
132 135
134 133
135 134
136 137
139 136
138 137
138 139
140 141
142 143
142 145
144 143
145 144
146 147
149 146
148 147
148 149
150 151
150 152
153 150
154 150
151 152
153 154
155 156
155 158
157 156
158 157
159 160
159 243
244 159
160 161
160 174
162 161
161 174
243 161
241 161
163 162
162 241
163 164
163 242
163 240
165 164
240 164
164 236
164 239
165 166
165 183
165 236
165 239
165 189
165 191
165 195
165 199
165 203
165 207
165 211
165 215
165 216
165 218
165 219
165 222
165 225
165 226
165 227
165 190
230 165
231 165
194 165
198 165
202 165
206 165
210 165
214 165
166 167
166 185
166 183
190 166
168 167
185 167
219 167
220 167
167 226
222 167
223 167
228 167
189 167
188 167
191 167
192 167
195 167
196 167
199 167
200 167
203 167
204 167
207 167
208 167
211 167
212 167
216 167
190 167
227 167
169 168
232 168
168 226
170 169
169 232
169 185
169 220
169 223
169 228
169 188
169 192
169 196
169 200
169 204
169 208
169 212
184 169
229 169
181 169
217 169
221 169
224 169
187 169
193 169
197 169
201 169
205 169
209 169
213 169
171 170
170 172
179 170
181 170
172 173
178 172
179 172
172 180
173 174
178 173
176 173
174 175
176 174
176 177
177 178
182 181
182 183
182 184
182 187
182 231
182 193
182 194
182 197
182 198
182 201
182 202
182 205
182 206
182 209
182 210
182 215
182 217
182 218
182 221
182 224
182 225
182 229
182 230
182 232
186 182
182 213
214 182
183 184
190 183
186 183
184 185
186 184
186 187
186 231
186 193
186 194
186 197
186 198
186 201
186 202
186 205
186 206
186 209
186 210
186 215
186 217
186 218
186 221
186 224
186 225
186 229
186 230
186 232
186 233
186 234
186 213
214 186
187 188
187 231
188 189
190 189
231 189
190 191
190 195
190 199
190 203
190 207
190 211
190 215
190 216
190 218
190 219
190 222
190 225
190 226
190 227
230 190
231 190
194 190
198 190
202 190
206 190
210 190
214 190
192 191
194 191
193 192
193 194
196 195
198 195
197 196
197 198
200 199
202 199
201 200
201 202
204 203
206 203
205 204
205 206
208 207
210 207
209 208
209 210
212 211
214 211
213 212
213 214
215 216
217 215
218 219
221 218
220 219
221 220
223 222
225 222
224 223
224 225
227 228
227 230
229 228
230 229
233 234
233 235
237 236
236 239
237 238
239 238
240 241
242 241
246 245
248 247
249 248
250 248
267 248
248 270
248 271
250 249
267 249
249 269
249 268
250 251
250 266
250 267
251 252
251 266
267 251
251 269
251 268
253 252
258 252
252 259
268 252
269 252
254 253
258 253
253 259
255 253
256 253
254 255
256 254
256 255
257 256
258 259
266 258
260 259
261 260
262 261
264 261
261 265
262 263
262 264
265 262
264 265
267 266
268 269
273 272
275 272
276 272
274 273
274 275
276 274
275 276
279 278
281 278
282 278
283 278
280 279
280 281
282 280
281 282
283 281
283 282
283 284
283 285
283 286
287 283
285 284
286 287
290 289
294 289
295 289
289 297
290 291
290 295
290 294
291 292
295 291
291 296
292 293
294 292
292 296
294 293
297 293
296 293
295 294
294 296
298 299
300 301
302 301
303 301
302 303
304 92
304 93
304 112
304 113
304 118
304 122
304 123
304 126
304 127
304 130
304 131
304 134
304 157
304 138
304 306
304 144
304 145
304 246
304 233
304 148
304 305
304 149
304 135
304 158
304 139
305 88
305 89
305 112
305 113
305 118
305 122
305 123
305 126
305 127
305 130
305 131
305 134
305 157
305 138
305 306
305 144
305 145
305 246
305 171
305 148
305 149
305 135
305 158
305 139
306 307
306 38
306 39
306 141
307 304
307 305
307 115
307 119
307 140
